c File: flat200_3_0.col
c
c SOURCE: Joseph Culberson (joe@cs.ualberta.ca)
c DESCRIPTION: Quasi-random coloring problem
c              generated with flatness = 0
c                             probability = 0.036
c                             known coloring = 3
c                             random seed = 1006
c              Creation Date:  Wed Feb 24 10:39:33 1999
c Maximum degree = 8 Minimum degree = 1
c COLOR VERIFICATION: Using the permuted order
c under simple greedy yields the specified
c coloring number
c Color = 3 specified partitions = 3
c p edge 200 479
c cnf created by edge2cnf
p cnf 600 2237
-1 -2 0
-1 -3 0
-2 -3 0
1 2 3 0
-4 -5 0
-4 -6 0
-5 -6 0
4 5 6 0
-7 -8 0
-7 -9 0
-8 -9 0
7 8 9 0
-10 -11 0
-10 -12 0
-11 -12 0
10 11 12 0
-13 -14 0
-13 -15 0
-14 -15 0
13 14 15 0
-16 -17 0
-16 -18 0
-17 -18 0
16 17 18 0
-19 -20 0
-19 -21 0
-20 -21 0
19 20 21 0
-22 -23 0
-22 -24 0
-23 -24 0
22 23 24 0
-25 -26 0
-25 -27 0
-26 -27 0
25 26 27 0
-28 -29 0
-28 -30 0
-29 -30 0
28 29 30 0
-31 -32 0
-31 -33 0
-32 -33 0
31 32 33 0
-34 -35 0
-34 -36 0
-35 -36 0
34 35 36 0
-37 -38 0
-37 -39 0
-38 -39 0
37 38 39 0
-40 -41 0
-40 -42 0
-41 -42 0
40 41 42 0
-43 -44 0
-43 -45 0
-44 -45 0
43 44 45 0
-46 -47 0
-46 -48 0
-47 -48 0
46 47 48 0
-49 -50 0
-49 -51 0
-50 -51 0
49 50 51 0
-52 -53 0
-52 -54 0
-53 -54 0
52 53 54 0
-55 -56 0
-55 -57 0
-56 -57 0
55 56 57 0
-58 -59 0
-58 -60 0
-59 -60 0
58 59 60 0
-61 -62 0
-61 -63 0
-62 -63 0
61 62 63 0
-64 -65 0
-64 -66 0
-65 -66 0
64 65 66 0
-67 -68 0
-67 -69 0
-68 -69 0
67 68 69 0
-70 -71 0
-70 -72 0
-71 -72 0
70 71 72 0
-73 -74 0
-73 -75 0
-74 -75 0
73 74 75 0
-76 -77 0
-76 -78 0
-77 -78 0
76 77 78 0
-79 -80 0
-79 -81 0
-80 -81 0
79 80 81 0
-82 -83 0
-82 -84 0
-83 -84 0
82 83 84 0
-85 -86 0
-85 -87 0
-86 -87 0
85 86 87 0
-88 -89 0
-88 -90 0
-89 -90 0
88 89 90 0
-91 -92 0
-91 -93 0
-92 -93 0
91 92 93 0
-94 -95 0
-94 -96 0
-95 -96 0
94 95 96 0
-97 -98 0
-97 -99 0
-98 -99 0
97 98 99 0
-100 -101 0
-100 -102 0
-101 -102 0
100 101 102 0
-103 -104 0
-103 -105 0
-104 -105 0
103 104 105 0
-106 -107 0
-106 -108 0
-107 -108 0
106 107 108 0
-109 -110 0
-109 -111 0
-110 -111 0
109 110 111 0
-112 -113 0
-112 -114 0
-113 -114 0
112 113 114 0
-115 -116 0
-115 -117 0
-116 -117 0
115 116 117 0
-118 -119 0
-118 -120 0
-119 -120 0
118 119 120 0
-121 -122 0
-121 -123 0
-122 -123 0
121 122 123 0
-124 -125 0
-124 -126 0
-125 -126 0
124 125 126 0
-127 -128 0
-127 -129 0
-128 -129 0
127 128 129 0
-130 -131 0
-130 -132 0
-131 -132 0
130 131 132 0
-133 -134 0
-133 -135 0
-134 -135 0
133 134 135 0
-136 -137 0
-136 -138 0
-137 -138 0
136 137 138 0
-139 -140 0
-139 -141 0
-140 -141 0
139 140 141 0
-142 -143 0
-142 -144 0
-143 -144 0
142 143 144 0
-145 -146 0
-145 -147 0
-146 -147 0
145 146 147 0
-148 -149 0
-148 -150 0
-149 -150 0
148 149 150 0
-151 -152 0
-151 -153 0
-152 -153 0
151 152 153 0
-154 -155 0
-154 -156 0
-155 -156 0
154 155 156 0
-157 -158 0
-157 -159 0
-158 -159 0
157 158 159 0
-160 -161 0
-160 -162 0
-161 -162 0
160 161 162 0
-163 -164 0
-163 -165 0
-164 -165 0
163 164 165 0
-166 -167 0
-166 -168 0
-167 -168 0
166 167 168 0
-169 -170 0
-169 -171 0
-170 -171 0
169 170 171 0
-172 -173 0
-172 -174 0
-173 -174 0
172 173 174 0
-175 -176 0
-175 -177 0
-176 -177 0
175 176 177 0
-178 -179 0
-178 -180 0
-179 -180 0
178 179 180 0
-181 -182 0
-181 -183 0
-182 -183 0
181 182 183 0
-184 -185 0
-184 -186 0
-185 -186 0
184 185 186 0
-187 -188 0
-187 -189 0
-188 -189 0
187 188 189 0
-190 -191 0
-190 -192 0
-191 -192 0
190 191 192 0
-193 -194 0
-193 -195 0
-194 -195 0
193 194 195 0
-196 -197 0
-196 -198 0
-197 -198 0
196 197 198 0
-199 -200 0
-199 -201 0
-200 -201 0
199 200 201 0
-202 -203 0
-202 -204 0
-203 -204 0
202 203 204 0
-205 -206 0
-205 -207 0
-206 -207 0
205 206 207 0
-208 -209 0
-208 -210 0
-209 -210 0
208 209 210 0
-211 -212 0
-211 -213 0
-212 -213 0
211 212 213 0
-214 -215 0
-214 -216 0
-215 -216 0
214 215 216 0
-217 -218 0
-217 -219 0
-218 -219 0
217 218 219 0
-220 -221 0
-220 -222 0
-221 -222 0
220 221 222 0
-223 -224 0
-223 -225 0
-224 -225 0
223 224 225 0
-226 -227 0
-226 -228 0
-227 -228 0
226 227 228 0
-229 -230 0
-229 -231 0
-230 -231 0
229 230 231 0
-232 -233 0
-232 -234 0
-233 -234 0
232 233 234 0
-235 -236 0
-235 -237 0
-236 -237 0
235 236 237 0
-238 -239 0
-238 -240 0
-239 -240 0
238 239 240 0
-241 -242 0
-241 -243 0
-242 -243 0
241 242 243 0
-244 -245 0
-244 -246 0
-245 -246 0
244 245 246 0
-247 -248 0
-247 -249 0
-248 -249 0
247 248 249 0
-250 -251 0
-250 -252 0
-251 -252 0
250 251 252 0
-253 -254 0
-253 -255 0
-254 -255 0
253 254 255 0
-256 -257 0
-256 -258 0
-257 -258 0
256 257 258 0
-259 -260 0
-259 -261 0
-260 -261 0
259 260 261 0
-262 -263 0
-262 -264 0
-263 -264 0
262 263 264 0
-265 -266 0
-265 -267 0
-266 -267 0
265 266 267 0
-268 -269 0
-268 -270 0
-269 -270 0
268 269 270 0
-271 -272 0
-271 -273 0
-272 -273 0
271 272 273 0
-274 -275 0
-274 -276 0
-275 -276 0
274 275 276 0
-277 -278 0
-277 -279 0
-278 -279 0
277 278 279 0
-280 -281 0
-280 -282 0
-281 -282 0
280 281 282 0
-283 -284 0
-283 -285 0
-284 -285 0
283 284 285 0
-286 -287 0
-286 -288 0
-287 -288 0
286 287 288 0
-289 -290 0
-289 -291 0
-290 -291 0
289 290 291 0
-292 -293 0
-292 -294 0
-293 -294 0
292 293 294 0
-295 -296 0
-295 -297 0
-296 -297 0
295 296 297 0
-298 -299 0
-298 -300 0
-299 -300 0
298 299 300 0
-301 -302 0
-301 -303 0
-302 -303 0
301 302 303 0
-304 -305 0
-304 -306 0
-305 -306 0
304 305 306 0
-307 -308 0
-307 -309 0
-308 -309 0
307 308 309 0
-310 -311 0
-310 -312 0
-311 -312 0
310 311 312 0
-313 -314 0
-313 -315 0
-314 -315 0
313 314 315 0
-316 -317 0
-316 -318 0
-317 -318 0
316 317 318 0
-319 -320 0
-319 -321 0
-320 -321 0
319 320 321 0
-322 -323 0
-322 -324 0
-323 -324 0
322 323 324 0
-325 -326 0
-325 -327 0
-326 -327 0
325 326 327 0
-328 -329 0
-328 -330 0
-329 -330 0
328 329 330 0
-331 -332 0
-331 -333 0
-332 -333 0
331 332 333 0
-334 -335 0
-334 -336 0
-335 -336 0
334 335 336 0
-337 -338 0
-337 -339 0
-338 -339 0
337 338 339 0
-340 -341 0
-340 -342 0
-341 -342 0
340 341 342 0
-343 -344 0
-343 -345 0
-344 -345 0
343 344 345 0
-346 -347 0
-346 -348 0
-347 -348 0
346 347 348 0
-349 -350 0
-349 -351 0
-350 -351 0
349 350 351 0
-352 -353 0
-352 -354 0
-353 -354 0
352 353 354 0
-355 -356 0
-355 -357 0
-356 -357 0
355 356 357 0
-358 -359 0
-358 -360 0
-359 -360 0
358 359 360 0
-361 -362 0
-361 -363 0
-362 -363 0
361 362 363 0
-364 -365 0
-364 -366 0
-365 -366 0
364 365 366 0
-367 -368 0
-367 -369 0
-368 -369 0
367 368 369 0
-370 -371 0
-370 -372 0
-371 -372 0
370 371 372 0
-373 -374 0
-373 -375 0
-374 -375 0
373 374 375 0
-376 -377 0
-376 -378 0
-377 -378 0
376 377 378 0
-379 -380 0
-379 -381 0
-380 -381 0
379 380 381 0
-382 -383 0
-382 -384 0
-383 -384 0
382 383 384 0
-385 -386 0
-385 -387 0
-386 -387 0
385 386 387 0
-388 -389 0
-388 -390 0
-389 -390 0
388 389 390 0
-391 -392 0
-391 -393 0
-392 -393 0
391 392 393 0
-394 -395 0
-394 -396 0
-395 -396 0
394 395 396 0
-397 -398 0
-397 -399 0
-398 -399 0
397 398 399 0
-400 -401 0
-400 -402 0
-401 -402 0
400 401 402 0
-403 -404 0
-403 -405 0
-404 -405 0
403 404 405 0
-406 -407 0
-406 -408 0
-407 -408 0
406 407 408 0
-409 -410 0
-409 -411 0
-410 -411 0
409 410 411 0
-412 -413 0
-412 -414 0
-413 -414 0
412 413 414 0
-415 -416 0
-415 -417 0
-416 -417 0
415 416 417 0
-418 -419 0
-418 -420 0
-419 -420 0
418 419 420 0
-421 -422 0
-421 -423 0
-422 -423 0
421 422 423 0
-424 -425 0
-424 -426 0
-425 -426 0
424 425 426 0
-427 -428 0
-427 -429 0
-428 -429 0
427 428 429 0
-430 -431 0
-430 -432 0
-431 -432 0
430 431 432 0
-433 -434 0
-433 -435 0
-434 -435 0
433 434 435 0
-436 -437 0
-436 -438 0
-437 -438 0
436 437 438 0
-439 -440 0
-439 -441 0
-440 -441 0
439 440 441 0
-442 -443 0
-442 -444 0
-443 -444 0
442 443 444 0
-445 -446 0
-445 -447 0
-446 -447 0
445 446 447 0
-448 -449 0
-448 -450 0
-449 -450 0
448 449 450 0
-451 -452 0
-451 -453 0
-452 -453 0
451 452 453 0
-454 -455 0
-454 -456 0
-455 -456 0
454 455 456 0
-457 -458 0
-457 -459 0
-458 -459 0
457 458 459 0
-460 -461 0
-460 -462 0
-461 -462 0
460 461 462 0
-463 -464 0
-463 -465 0
-464 -465 0
463 464 465 0
-466 -467 0
-466 -468 0
-467 -468 0
466 467 468 0
-469 -470 0
-469 -471 0
-470 -471 0
469 470 471 0
-472 -473 0
-472 -474 0
-473 -474 0
472 473 474 0
-475 -476 0
-475 -477 0
-476 -477 0
475 476 477 0
-478 -479 0
-478 -480 0
-479 -480 0
478 479 480 0
-481 -482 0
-481 -483 0
-482 -483 0
481 482 483 0
-484 -485 0
-484 -486 0
-485 -486 0
484 485 486 0
-487 -488 0
-487 -489 0
-488 -489 0
487 488 489 0
-490 -491 0
-490 -492 0
-491 -492 0
490 491 492 0
-493 -494 0
-493 -495 0
-494 -495 0
493 494 495 0
-496 -497 0
-496 -498 0
-497 -498 0
496 497 498 0
-499 -500 0
-499 -501 0
-500 -501 0
499 500 501 0
-502 -503 0
-502 -504 0
-503 -504 0
502 503 504 0
-505 -506 0
-505 -507 0
-506 -507 0
505 506 507 0
-508 -509 0
-508 -510 0
-509 -510 0
508 509 510 0
-511 -512 0
-511 -513 0
-512 -513 0
511 512 513 0
-514 -515 0
-514 -516 0
-515 -516 0
514 515 516 0
-517 -518 0
-517 -519 0
-518 -519 0
517 518 519 0
-520 -521 0
-520 -522 0
-521 -522 0
520 521 522 0
-523 -524 0
-523 -525 0
-524 -525 0
523 524 525 0
-526 -527 0
-526 -528 0
-527 -528 0
526 527 528 0
-529 -530 0
-529 -531 0
-530 -531 0
529 530 531 0
-532 -533 0
-532 -534 0
-533 -534 0
532 533 534 0
-535 -536 0
-535 -537 0
-536 -537 0
535 536 537 0
-538 -539 0
-538 -540 0
-539 -540 0
538 539 540 0
-541 -542 0
-541 -543 0
-542 -543 0
541 542 543 0
-544 -545 0
-544 -546 0
-545 -546 0
544 545 546 0
-547 -548 0
-547 -549 0
-548 -549 0
547 548 549 0
-550 -551 0
-550 -552 0
-551 -552 0
550 551 552 0
-553 -554 0
-553 -555 0
-554 -555 0
553 554 555 0
-556 -557 0
-556 -558 0
-557 -558 0
556 557 558 0
-559 -560 0
-559 -561 0
-560 -561 0
559 560 561 0
-562 -563 0
-562 -564 0
-563 -564 0
562 563 564 0
-565 -566 0
-565 -567 0
-566 -567 0
565 566 567 0
-568 -569 0
-568 -570 0
-569 -570 0
568 569 570 0
-571 -572 0
-571 -573 0
-572 -573 0
571 572 573 0
-574 -575 0
-574 -576 0
-575 -576 0
574 575 576 0
-577 -578 0
-577 -579 0
-578 -579 0
577 578 579 0
-580 -581 0
-580 -582 0
-581 -582 0
580 581 582 0
-583 -584 0
-583 -585 0
-584 -585 0
583 584 585 0
-586 -587 0
-586 -588 0
-587 -588 0
586 587 588 0
-589 -590 0
-589 -591 0
-590 -591 0
589 590 591 0
-592 -593 0
-592 -594 0
-593 -594 0
592 593 594 0
-595 -596 0
-595 -597 0
-596 -597 0
595 596 597 0
-598 -599 0
-598 -600 0
-599 -600 0
598 599 600 0
-76 -1 0
-77 -2 0
-78 -3 0
-160 -1 0
-161 -2 0
-162 -3 0
-277 -1 0
-278 -2 0
-279 -3 0
-358 -1 0
-359 -2 0
-360 -3 0
-388 -1 0
-389 -2 0
-390 -3 0
-427 -1 0
-428 -2 0
-429 -3 0
-598 -1 0
-599 -2 0
-600 -3 0
-223 -4 0
-224 -5 0
-225 -6 0
-319 -4 0
-320 -5 0
-321 -6 0
-562 -4 0
-563 -5 0
-564 -6 0
-589 -4 0
-590 -5 0
-591 -6 0
-127 -7 0
-128 -8 0
-129 -9 0
-520 -7 0
-521 -8 0
-522 -9 0
-85 -10 0
-86 -11 0
-87 -12 0
-136 -10 0
-137 -11 0
-138 -12 0
-379 -10 0
-380 -11 0
-381 -12 0
-448 -10 0
-449 -11 0
-450 -12 0
-466 -10 0
-467 -11 0
-468 -12 0
-16 -13 0
-17 -14 0
-18 -15 0
-223 -13 0
-224 -14 0
-225 -15 0
-226 -13 0
-227 -14 0
-228 -15 0
-313 -13 0
-314 -14 0
-315 -15 0
-409 -13 0
-410 -14 0
-411 -15 0
-67 -16 0
-68 -17 0
-69 -18 0
-331 -16 0
-332 -17 0
-333 -18 0
-394 -16 0
-395 -17 0
-396 -18 0
-40 -19 0
-41 -20 0
-42 -21 0
-142 -19 0
-143 -20 0
-144 -21 0
-166 -19 0
-167 -20 0
-168 -21 0
-235 -19 0
-236 -20 0
-237 -21 0
-328 -19 0
-329 -20 0
-330 -21 0
-460 -19 0
-461 -20 0
-462 -21 0
-64 -22 0
-65 -23 0
-66 -24 0
-424 -22 0
-425 -23 0
-426 -24 0
-553 -22 0
-554 -23 0
-555 -24 0
-55 -25 0
-56 -26 0
-57 -27 0
-127 -25 0
-128 -26 0
-129 -27 0
-133 -25 0
-134 -26 0
-135 -27 0
-262 -25 0
-263 -26 0
-264 -27 0
-337 -25 0
-338 -26 0
-339 -27 0
-436 -25 0
-437 -26 0
-438 -27 0
-532 -25 0
-533 -26 0
-534 -27 0
-70 -28 0
-71 -29 0
-72 -30 0
-79 -28 0
-80 -29 0
-81 -30 0
-142 -28 0
-143 -29 0
-144 -30 0
-253 -28 0
-254 -29 0
-255 -30 0
-301 -28 0
-302 -29 0
-303 -30 0
-307 -28 0
-308 -29 0
-309 -30 0
-550 -28 0
-551 -29 0
-552 -30 0
-43 -31 0
-44 -32 0
-45 -33 0
-121 -31 0
-122 -32 0
-123 -33 0
-130 -31 0
-131 -32 0
-132 -33 0
-511 -31 0
-512 -32 0
-513 -33 0
-214 -34 0
-215 -35 0
-216 -36 0
-223 -34 0
-224 -35 0
-225 -36 0
-259 -34 0
-260 -35 0
-261 -36 0
-535 -34 0
-536 -35 0
-537 -36 0
-538 -34 0
-539 -35 0
-540 -36 0
-595 -34 0
-596 -35 0
-597 -36 0
-82 -37 0
-83 -38 0
-84 -39 0
-334 -37 0
-335 -38 0
-336 -39 0
-565 -37 0
-566 -38 0
-567 -39 0
-169 -40 0
-170 -41 0
-171 -42 0
-364 -40 0
-365 -41 0
-366 -42 0
-436 -40 0
-437 -41 0
-438 -42 0
-499 -40 0
-500 -41 0
-501 -42 0
-511 -40 0
-512 -41 0
-513 -42 0
-142 -43 0
-143 -44 0
-144 -45 0
-277 -43 0
-278 -44 0
-279 -45 0
-148 -46 0
-149 -47 0
-150 -48 0
-157 -46 0
-158 -47 0
-159 -48 0
-397 -46 0
-398 -47 0
-399 -48 0
-454 -46 0
-455 -47 0
-456 -48 0
-472 -46 0
-473 -47 0
-474 -48 0
-157 -49 0
-158 -50 0
-159 -51 0
-223 -49 0
-224 -50 0
-225 -51 0
-514 -49 0
-515 -50 0
-516 -51 0
-523 -49 0
-524 -50 0
-525 -51 0
-556 -49 0
-557 -50 0
-558 -51 0
-595 -49 0
-596 -50 0
-597 -51 0
-64 -52 0
-65 -53 0
-66 -54 0
-139 -52 0
-140 -53 0
-141 -54 0
-367 -52 0
-368 -53 0
-369 -54 0
-82 -55 0
-83 -56 0
-84 -57 0
-190 -55 0
-191 -56 0
-192 -57 0
-220 -55 0
-221 -56 0
-222 -57 0
-235 -55 0
-236 -56 0
-237 -57 0
-451 -55 0
-452 -56 0
-453 -57 0
-511 -55 0
-512 -56 0
-513 -57 0
-559 -55 0
-560 -56 0
-561 -57 0
-73 -58 0
-74 -59 0
-75 -60 0
-97 -58 0
-98 -59 0
-99 -60 0
-199 -58 0
-200 -59 0
-201 -60 0
-220 -58 0
-221 -59 0
-222 -60 0
-361 -58 0
-362 -59 0
-363 -60 0
-403 -58 0
-404 -59 0
-405 -60 0
-76 -61 0
-77 -62 0
-78 -63 0
-97 -61 0
-98 -62 0
-99 -63 0
-115 -61 0
-116 -62 0
-117 -63 0
-130 -61 0
-131 -62 0
-132 -63 0
-193 -61 0
-194 -62 0
-195 -63 0
-322 -61 0
-323 -62 0
-324 -63 0
-376 -61 0
-377 -62 0
-378 -63 0
-325 -64 0
-326 -65 0
-327 -66 0
-421 -64 0
-422 -65 0
-423 -66 0
-451 -64 0
-452 -65 0
-453 -66 0
-475 -64 0
-476 -65 0
-477 -66 0
-499 -64 0
-500 -65 0
-501 -66 0
-529 -64 0
-530 -65 0
-531 -66 0
-154 -67 0
-155 -68 0
-156 -69 0
-193 -67 0
-194 -68 0
-195 -69 0
-325 -67 0
-326 -68 0
-327 -69 0
-442 -67 0
-443 -68 0
-444 -69 0
-262 -70 0
-263 -71 0
-264 -72 0
-370 -70 0
-371 -71 0
-372 -72 0
-433 -70 0
-434 -71 0
-435 -72 0
-475 -70 0
-476 -71 0
-477 -72 0
-496 -70 0
-497 -71 0
-498 -72 0
-217 -73 0
-218 -74 0
-219 -75 0
-391 -73 0
-392 -74 0
-393 -75 0
-436 -73 0
-437 -74 0
-438 -75 0
-478 -73 0
-479 -74 0
-480 -75 0
-565 -73 0
-566 -74 0
-567 -75 0
-151 -76 0
-152 -77 0
-153 -78 0
-229 -76 0
-230 -77 0
-231 -78 0
-409 -76 0
-410 -77 0
-411 -78 0
-496 -76 0
-497 -77 0
-498 -78 0
-157 -79 0
-158 -80 0
-159 -81 0
-313 -79 0
-314 -80 0
-315 -81 0
-412 -79 0
-413 -80 0
-414 -81 0
-472 -79 0
-473 -80 0
-474 -81 0
-565 -79 0
-566 -80 0
-567 -81 0
-244 -82 0
-245 -83 0
-246 -84 0
-595 -85 0
-596 -86 0
-597 -87 0
-205 -88 0
-206 -89 0
-207 -90 0
-250 -88 0
-251 -89 0
-252 -90 0
-319 -88 0
-320 -89 0
-321 -90 0
-520 -88 0
-521 -89 0
-522 -90 0
-349 -91 0
-350 -92 0
-351 -93 0
-382 -91 0
-383 -92 0
-384 -93 0
-256 -94 0
-257 -95 0
-258 -96 0
-274 -94 0
-275 -95 0
-276 -96 0
-439 -94 0
-440 -95 0
-441 -96 0
-550 -94 0
-551 -95 0
-552 -96 0
-571 -97 0
-572 -98 0
-573 -99 0
-589 -97 0
-590 -98 0
-591 -99 0
-190 -100 0
-191 -101 0
-192 -102 0
-256 -100 0
-257 -101 0
-258 -102 0
-298 -100 0
-299 -101 0
-300 -102 0
-346 -100 0
-347 -101 0
-348 -102 0
-373 -100 0
-374 -101 0
-375 -102 0
-382 -100 0
-383 -101 0
-384 -102 0
-562 -100 0
-563 -101 0
-564 -102 0
-580 -100 0
-581 -101 0
-582 -102 0
-199 -103 0
-200 -104 0
-201 -105 0
-385 -103 0
-386 -104 0
-387 -105 0
-487 -103 0
-488 -104 0
-489 -105 0
-421 -106 0
-422 -107 0
-423 -108 0
-499 -106 0
-500 -107 0
-501 -108 0
-517 -106 0
-518 -107 0
-519 -108 0
-532 -106 0
-533 -107 0
-534 -108 0
-541 -106 0
-542 -107 0
-543 -108 0
-193 -109 0
-194 -110 0
-195 -111 0
-376 -109 0
-377 -110 0
-378 -111 0
-430 -109 0
-431 -110 0
-432 -111 0
-493 -109 0
-494 -110 0
-495 -111 0
-511 -109 0
-512 -110 0
-513 -111 0
-208 -112 0
-209 -113 0
-210 -114 0
-280 -112 0
-281 -113 0
-282 -114 0
-409 -112 0
-410 -113 0
-411 -114 0
-544 -112 0
-545 -113 0
-546 -114 0
-574 -112 0
-575 -113 0
-576 -114 0
-256 -115 0
-257 -116 0
-258 -117 0
-277 -115 0
-278 -116 0
-279 -117 0
-310 -115 0
-311 -116 0
-312 -117 0
-403 -115 0
-404 -116 0
-405 -117 0
-481 -115 0
-482 -116 0
-483 -117 0
-502 -115 0
-503 -116 0
-504 -117 0
-598 -115 0
-599 -116 0
-600 -117 0
-160 -118 0
-161 -119 0
-162 -120 0
-205 -118 0
-206 -119 0
-207 -120 0
-211 -118 0
-212 -119 0
-213 -120 0
-292 -118 0
-293 -119 0
-294 -120 0
-592 -118 0
-593 -119 0
-594 -120 0
-499 -121 0
-500 -122 0
-501 -123 0
-190 -124 0
-191 -125 0
-192 -126 0
-238 -124 0
-239 -125 0
-240 -126 0
-289 -124 0
-290 -125 0
-291 -126 0
-307 -124 0
-308 -125 0
-309 -126 0
-334 -124 0
-335 -125 0
-336 -126 0
-547 -124 0
-548 -125 0
-549 -126 0
-556 -124 0
-557 -125 0
-558 -126 0
-151 -127 0
-152 -128 0
-153 -129 0
-343 -127 0
-344 -128 0
-345 -129 0
-148 -130 0
-149 -131 0
-150 -132 0
-160 -130 0
-161 -131 0
-162 -132 0
-544 -130 0
-545 -131 0
-546 -132 0
-142 -133 0
-143 -134 0
-144 -135 0
-211 -133 0
-212 -134 0
-213 -135 0
-304 -133 0
-305 -134 0
-306 -135 0
-337 -133 0
-338 -134 0
-339 -135 0
-352 -133 0
-353 -134 0
-354 -135 0
-589 -133 0
-590 -134 0
-591 -135 0
-184 -136 0
-185 -137 0
-186 -138 0
-415 -136 0
-416 -137 0
-417 -138 0
-439 -136 0
-440 -137 0
-441 -138 0
-496 -136 0
-497 -137 0
-498 -138 0
-559 -136 0
-560 -137 0
-561 -138 0
-169 -139 0
-170 -140 0
-171 -141 0
-298 -139 0
-299 -140 0
-300 -141 0
-322 -139 0
-323 -140 0
-324 -141 0
-382 -139 0
-383 -140 0
-384 -141 0
-517 -139 0
-518 -140 0
-519 -141 0
-589 -139 0
-590 -140 0
-591 -141 0
-238 -142 0
-239 -143 0
-240 -144 0
-457 -142 0
-458 -143 0
-459 -144 0
-478 -142 0
-479 -143 0
-480 -144 0
-238 -145 0
-239 -146 0
-240 -147 0
-253 -145 0
-254 -146 0
-255 -147 0
-535 -145 0
-536 -146 0
-537 -147 0
-328 -148 0
-329 -149 0
-330 -150 0
-301 -151 0
-302 -152 0
-303 -153 0
-511 -151 0
-512 -152 0
-513 -153 0
-535 -151 0
-536 -152 0
-537 -153 0
-349 -154 0
-350 -155 0
-351 -156 0
-355 -154 0
-356 -155 0
-357 -156 0
-388 -154 0
-389 -155 0
-390 -156 0
-427 -154 0
-428 -155 0
-429 -156 0
-436 -154 0
-437 -155 0
-438 -156 0
-508 -154 0
-509 -155 0
-510 -156 0
-547 -154 0
-548 -155 0
-549 -156 0
-196 -157 0
-197 -158 0
-198 -159 0
-328 -157 0
-329 -158 0
-330 -159 0
-511 -157 0
-512 -158 0
-513 -159 0
-532 -157 0
-533 -158 0
-534 -159 0
-535 -157 0
-536 -158 0
-537 -159 0
-181 -160 0
-182 -161 0
-183 -162 0
-247 -160 0
-248 -161 0
-249 -162 0
-361 -160 0
-362 -161 0
-363 -162 0
-463 -160 0
-464 -161 0
-465 -162 0
-544 -160 0
-545 -161 0
-546 -162 0
-253 -163 0
-254 -164 0
-255 -165 0
-481 -163 0
-482 -164 0
-483 -165 0
-379 -166 0
-380 -167 0
-381 -168 0
-427 -166 0
-428 -167 0
-429 -168 0
-310 -169 0
-311 -170 0
-312 -171 0
-403 -169 0
-404 -170 0
-405 -171 0
-481 -169 0
-482 -170 0
-483 -171 0
-358 -172 0
-359 -173 0
-360 -174 0
-370 -172 0
-371 -173 0
-372 -174 0
-577 -172 0
-578 -173 0
-579 -174 0
-226 -175 0
-227 -176 0
-228 -177 0
-568 -175 0
-569 -176 0
-570 -177 0
-574 -175 0
-575 -176 0
-576 -177 0
-361 -178 0
-362 -179 0
-363 -180 0
-388 -178 0
-389 -179 0
-390 -180 0
-409 -178 0
-410 -179 0
-411 -180 0
-520 -178 0
-521 -179 0
-522 -180 0
-496 -181 0
-497 -182 0
-498 -183 0
-517 -181 0
-518 -182 0
-519 -183 0
-547 -181 0
-548 -182 0
-549 -183 0
-556 -181 0
-557 -182 0
-558 -183 0
-391 -184 0
-392 -185 0
-393 -186 0
-421 -184 0
-422 -185 0
-423 -186 0
-499 -184 0
-500 -185 0
-501 -186 0
-331 -187 0
-332 -188 0
-333 -189 0
-361 -187 0
-362 -188 0
-363 -189 0
-553 -187 0
-554 -188 0
-555 -189 0
-274 -190 0
-275 -191 0
-276 -192 0
-280 -190 0
-281 -191 0
-282 -192 0
-388 -190 0
-389 -191 0
-390 -192 0
-355 -193 0
-356 -194 0
-357 -195 0
-202 -196 0
-203 -197 0
-204 -198 0
-274 -196 0
-275 -197 0
-276 -198 0
-430 -196 0
-431 -197 0
-432 -198 0
-439 -196 0
-440 -197 0
-441 -198 0
-475 -196 0
-476 -197 0
-477 -198 0
-253 -199 0
-254 -200 0
-255 -201 0
-310 -199 0
-311 -200 0
-312 -201 0
-532 -199 0
-533 -200 0
-534 -201 0
-229 -205 0
-230 -206 0
-231 -207 0
-310 -205 0
-311 -206 0
-312 -207 0
-355 -205 0
-356 -206 0
-357 -207 0
-361 -205 0
-362 -206 0
-363 -207 0
-487 -205 0
-488 -206 0
-489 -207 0
-562 -205 0
-563 -206 0
-564 -207 0
-577 -208 0
-578 -209 0
-579 -210 0
-385 -211 0
-386 -212 0
-387 -213 0
-400 -211 0
-401 -212 0
-402 -213 0
-235 -214 0
-236 -215 0
-237 -216 0
-313 -214 0
-314 -215 0
-315 -216 0
-298 -220 0
-299 -221 0
-300 -222 0
-325 -220 0
-326 -221 0
-327 -222 0
-391 -220 0
-392 -221 0
-393 -222 0
-400 -220 0
-401 -221 0
-402 -222 0
-406 -220 0
-407 -221 0
-408 -222 0
-499 -220 0
-500 -221 0
-501 -222 0
-274 -226 0
-275 -227 0
-276 -228 0
-346 -226 0
-347 -227 0
-348 -228 0
-442 -226 0
-443 -227 0
-444 -228 0
-532 -226 0
-533 -227 0
-534 -228 0
-577 -226 0
-578 -227 0
-579 -228 0
-277 -229 0
-278 -230 0
-279 -231 0
-484 -229 0
-485 -230 0
-486 -231 0
-307 -232 0
-308 -233 0
-309 -234 0
-421 -232 0
-422 -233 0
-423 -234 0
-514 -232 0
-515 -233 0
-516 -234 0
-286 -235 0
-287 -236 0
-288 -237 0
-394 -235 0
-395 -236 0
-396 -237 0
-421 -235 0
-422 -236 0
-423 -237 0
-526 -235 0
-527 -236 0
-528 -237 0
-415 -238 0
-416 -239 0
-417 -240 0
-574 -238 0
-575 -239 0
-576 -240 0
-250 -241 0
-251 -242 0
-252 -243 0
-289 -244 0
-290 -245 0
-291 -246 0
-427 -244 0
-428 -245 0
-429 -246 0
-490 -244 0
-491 -245 0
-492 -246 0
-544 -244 0
-545 -245 0
-546 -246 0
-565 -244 0
-566 -245 0
-567 -246 0
-256 -247 0
-257 -248 0
-258 -249 0
-271 -247 0
-272 -248 0
-273 -249 0
-424 -247 0
-425 -248 0
-426 -249 0
-580 -247 0
-581 -248 0
-582 -249 0
-256 -250 0
-257 -251 0
-258 -252 0
-358 -250 0
-359 -251 0
-360 -252 0
-400 -250 0
-401 -251 0
-402 -252 0
-577 -250 0
-578 -251 0
-579 -252 0
-322 -253 0
-323 -254 0
-324 -255 0
-445 -253 0
-446 -254 0
-447 -255 0
-478 -256 0
-479 -257 0
-480 -258 0
-511 -256 0
-512 -257 0
-513 -258 0
-475 -259 0
-476 -260 0
-477 -261 0
-523 -259 0
-524 -260 0
-525 -261 0
-472 -262 0
-473 -263 0
-474 -264 0
-274 -265 0
-275 -266 0
-276 -267 0
-379 -265 0
-380 -266 0
-381 -267 0
-430 -265 0
-431 -266 0
-432 -267 0
-475 -265 0
-476 -266 0
-477 -267 0
-562 -265 0
-563 -266 0
-564 -267 0
-577 -265 0
-578 -266 0
-579 -267 0
-586 -268 0
-587 -269 0
-588 -270 0
-388 -271 0
-389 -272 0
-390 -273 0
-304 -274 0
-305 -275 0
-306 -276 0
-487 -274 0
-488 -275 0
-489 -276 0
-355 -277 0
-356 -278 0
-357 -279 0
-463 -277 0
-464 -278 0
-465 -279 0
-520 -277 0
-521 -278 0
-522 -279 0
-481 -280 0
-482 -281 0
-483 -282 0
-427 -283 0
-428 -284 0
-429 -285 0
-541 -283 0
-542 -284 0
-543 -285 0
-379 -286 0
-380 -287 0
-381 -288 0
-385 -286 0
-386 -287 0
-387 -288 0
-424 -286 0
-425 -287 0
-426 -288 0
-397 -289 0
-398 -290 0
-399 -291 0
-583 -289 0
-584 -290 0
-585 -291 0
-529 -292 0
-530 -293 0
-531 -294 0
-571 -292 0
-572 -293 0
-573 -294 0
-346 -295 0
-347 -296 0
-348 -297 0
-397 -295 0
-398 -296 0
-399 -297 0
-445 -295 0
-446 -296 0
-447 -297 0
-373 -298 0
-374 -299 0
-375 -300 0
-469 -298 0
-470 -299 0
-471 -300 0
-574 -298 0
-575 -299 0
-576 -300 0
-310 -301 0
-311 -302 0
-312 -303 0
-430 -301 0
-431 -302 0
-432 -303 0
-439 -301 0
-440 -302 0
-441 -303 0
-460 -301 0
-461 -302 0
-462 -303 0
-568 -301 0
-569 -302 0
-570 -303 0
-574 -301 0
-575 -302 0
-576 -303 0
-454 -304 0
-455 -305 0
-456 -306 0
-547 -304 0
-548 -305 0
-549 -306 0
-568 -304 0
-569 -305 0
-570 -306 0
-337 -307 0
-338 -308 0
-339 -309 0
-463 -307 0
-464 -308 0
-465 -309 0
-559 -307 0
-560 -308 0
-561 -309 0
-463 -310 0
-464 -311 0
-465 -312 0
-496 -310 0
-497 -311 0
-498 -312 0
-583 -310 0
-584 -311 0
-585 -312 0
-331 -313 0
-332 -314 0
-333 -315 0
-358 -313 0
-359 -314 0
-360 -315 0
-349 -316 0
-350 -317 0
-351 -318 0
-529 -316 0
-530 -317 0
-531 -318 0
-580 -316 0
-581 -317 0
-582 -318 0
-361 -319 0
-362 -320 0
-363 -321 0
-409 -319 0
-410 -320 0
-411 -321 0
-505 -319 0
-506 -320 0
-507 -321 0
-538 -319 0
-539 -320 0
-540 -321 0
-595 -319 0
-596 -320 0
-597 -321 0
-346 -322 0
-347 -323 0
-348 -324 0
-412 -322 0
-413 -323 0
-414 -324 0
-418 -322 0
-419 -323 0
-420 -324 0
-424 -322 0
-425 -323 0
-426 -324 0
-538 -322 0
-539 -323 0
-540 -324 0
-370 -325 0
-371 -326 0
-372 -327 0
-556 -325 0
-557 -326 0
-558 -327 0
-430 -328 0
-431 -329 0
-432 -330 0
-349 -334 0
-350 -335 0
-351 -336 0
-397 -334 0
-398 -335 0
-399 -336 0
-427 -334 0
-428 -335 0
-429 -336 0
-481 -334 0
-482 -335 0
-483 -336 0
-502 -334 0
-503 -335 0
-504 -336 0
-391 -337 0
-392 -338 0
-393 -339 0
-454 -337 0
-455 -338 0
-456 -339 0
-379 -340 0
-380 -341 0
-381 -342 0
-532 -340 0
-533 -341 0
-534 -342 0
-391 -343 0
-392 -344 0
-393 -345 0
-565 -343 0
-566 -344 0
-567 -345 0
-442 -346 0
-443 -347 0
-444 -348 0
-424 -349 0
-425 -350 0
-426 -351 0
-541 -349 0
-542 -350 0
-543 -351 0
-529 -352 0
-530 -353 0
-531 -354 0
-565 -358 0
-566 -359 0
-567 -360 0
-376 -361 0
-377 -362 0
-378 -363 0
-421 -361 0
-422 -362 0
-423 -363 0
-433 -364 0
-434 -365 0
-435 -366 0
-541 -364 0
-542 -365 0
-543 -366 0
-385 -367 0
-386 -368 0
-387 -369 0
-457 -367 0
-458 -368 0
-459 -369 0
-589 -370 0
-590 -371 0
-591 -372 0
-418 -373 0
-419 -374 0
-420 -375 0
-415 -376 0
-416 -377 0
-417 -378 0
-445 -379 0
-446 -380 0
-447 -381 0
-565 -379 0
-566 -380 0
-567 -381 0
-445 -382 0
-446 -383 0
-447 -384 0
-589 -382 0
-590 -383 0
-591 -384 0
-508 -385 0
-509 -386 0
-510 -387 0
-412 -391 0
-413 -392 0
-414 -393 0
-532 -391 0
-533 -392 0
-534 -393 0
-586 -391 0
-587 -392 0
-588 -393 0
-457 -394 0
-458 -395 0
-459 -396 0
-508 -394 0
-509 -395 0
-510 -396 0
-526 -394 0
-527 -395 0
-528 -396 0
-514 -397 0
-515 -398 0
-516 -399 0
-541 -397 0
-542 -398 0
-543 -399 0
-406 -400 0
-407 -401 0
-408 -402 0
-574 -400 0
-575 -401 0
-576 -402 0
-481 -403 0
-482 -404 0
-483 -405 0
-487 -403 0
-488 -404 0
-489 -405 0
-583 -406 0
-584 -407 0
-585 -408 0
-517 -409 0
-518 -410 0
-519 -411 0
-523 -409 0
-524 -410 0
-525 -411 0
-448 -418 0
-449 -419 0
-450 -420 0
-466 -418 0
-467 -419 0
-468 -420 0
-592 -418 0
-593 -419 0
-594 -420 0
-451 -421 0
-452 -422 0
-453 -423 0
-535 -421 0
-536 -422 0
-537 -423 0
-436 -424 0
-437 -425 0
-438 -426 0
-481 -424 0
-482 -425 0
-483 -426 0
-436 -427 0
-437 -428 0
-438 -429 0
-466 -427 0
-467 -428 0
-468 -429 0
-442 -430 0
-443 -431 0
-444 -432 0
-499 -430 0
-500 -431 0
-501 -432 0
-472 -433 0
-473 -434 0
-474 -435 0
-526 -439 0
-527 -440 0
-528 -441 0
-487 -442 0
-488 -443 0
-489 -444 0
-502 -451 0
-503 -452 0
-504 -453 0
-571 -454 0
-572 -455 0
-573 -456 0
-580 -460 0
-581 -461 0
-582 -462 0
-583 -460 0
-584 -461 0
-585 -462 0
-526 -463 0
-527 -464 0
-528 -465 0
-553 -463 0
-554 -464 0
-555 -465 0
-481 -466 0
-482 -467 0
-483 -468 0
-571 -466 0
-572 -467 0
-573 -468 0
-562 -472 0
-563 -473 0
-564 -474 0
-595 -472 0
-596 -473 0
-597 -474 0
-514 -475 0
-515 -476 0
-516 -477 0
-538 -478 0
-539 -479 0
-540 -480 0
-589 -484 0
-590 -485 0
-591 -486 0
-520 -493 0
-521 -494 0
-522 -495 0
-529 -511 0
-530 -512 0
-531 -513 0
-550 -523 0
-551 -524 0
-552 -525 0
-583 -523 0
-584 -524 0
-585 -525 0
-571 -529 0
-572 -530 0
-573 -531 0
-574 -529 0
-575 -530 0
-576 -531 0
-562 -538 0
-563 -539 0
-564 -540 0
-556 -544 0
-557 -545 0
-558 -546 0
-574 -547 0
-575 -548 0
-576 -549 0
-568 -550 0
-569 -551 0
-570 -552 0
-589 -553 0
-590 -554 0
-591 -555 0
